65 
300 
-0.5 0 0 0
0.5 0 0 -10
-7 -7 -35 -84
-7 -5 35 -14
-7 -3 35 -19
-7 -1 35 -23
-7 1 35 -25
-7 3 35 -22
-7 5 35 -12
-7 7 -35 -127
-5 -7 35 -26
-5 -5 25 -23
-5 -3 25 -25
-5 -1 -25 -129
-5 1 25 -28
-5 3 25 -25
-5 5 25 -15
-5 7 -35 -64
-3 -7 35 -15
-3 -5 25 -27
-3 -3 -15 -61
-3 -1 -15 -70
-3 1 15 -21
-3 3 15 -14
-3 5 25 -12
-3 7 35 -24
-1 -7 -35 -68
-1 -5 25 -28
-1 -3 -15 -82
-1 -1 5 -20
-1 1 -5 -119
-1 3 -15 -119
-1 5 -25 -61
-1 7 35 -14
1 -7 -35 -89
1 -5 -25 -120
1 -3 -15 -127
1 -1 5 -26
1 1 -5 -138
1 3 -15 -128
1 5 -25 -64
1 7 -35 -100
3 -7 -35 -102
3 -5 -25 -79
3 -3 15 -24
3 -1 15 -29
3 1 -15 -107
3 3 15 -13
3 5 25 -11
3 7 -35 -134
5 -7 35 -19
5 -5 25 -24
5 -3 25 -12
5 -1 25 -11
5 1 -25 -70
5 3 -25 -97
5 5 -25 -103
5 7 35 -26
7 -7 35 -16
7 -5 35 -19
7 -3 -35 -94
7 -1 -35 -121
7 1 35 -29
7 3 35 -21
7 5 -35 -127
7 7 35 -27
